p cnf 636 2213
-303 0 
-390 0 
-321 0 
29 38 47 56 0 
-29 -38 0 
-29 -47 0 
-29 -56 0 
-38 -47 0 
-38 -56 0 
-47 -56 0 
-29 -497 466 0 
-29 -497 70 0 
-246 -498 471 0 
-246 -498 76 0 
-255 -499 476 0 
-255 -499 82 0 
-264 -500 481 0 
-264 -500 88 0 
-273 -501 486 0 
-273 -501 94 0 
-282 -502 491 0 
-282 -502 100 0 
-291 -503 496 0 
-291 -503 106 0 
-38 -504 466 0 
-38 -504 107 0 
-301 -505 471 0 
-301 -505 113 0 
-310 -506 476 0 
-310 -506 119 0 
-319 -507 481 0 
-319 -507 125 0 
-328 -508 486 0 
-328 -508 131 0 
-337 -509 491 0 
-337 -509 137 0 
-346 -510 496 0 
-346 -510 143 0 
-47 -511 466 0 
-47 -511 144 0 
-356 -512 471 0 
-356 -512 150 0 
-365 -513 476 0 
-365 -513 156 0 
-374 -514 481 0 
-374 -514 162 0 
-383 -515 486 0 
-383 -515 168 0 
-392 -516 491 0 
-392 -516 174 0 
-401 -517 496 0 
-401 -517 180 0 
-56 -518 466 0 
-56 -518 181 0 
-411 -519 471 0 
-411 -519 187 0 
-420 -520 476 0 
-420 -520 193 0 
-429 -521 481 0 
-429 -521 199 0 
-438 -522 486 0 
-438 -522 205 0 
-447 -523 491 0 
-447 -523 211 0 
-456 -524 496 0 
-456 -524 217 0 
-29 -25 -525 70 0 
-29 -25 -525 246 0 
-29 -25 -525 -246 0 
-246 -218 -526 76 0 
-246 -218 -526 255 0 
-246 -218 -526 -255 0 
-255 -219 -527 82 0 
-255 -219 -527 264 0 
-255 -219 -527 -264 0 
-264 -220 -528 88 0 
-264 -220 -528 273 0 
-264 -220 -528 -273 0 
-273 -221 -529 94 0 
-273 -221 -529 282 0 
-273 -221 -529 -282 0 
-282 -222 -530 100 0 
-282 -222 -530 291 0 
-282 -222 -530 -291 0 
-291 -223 -531 106 0 
-291 -223 -531 300 0 
-291 -223 -531 -300 0 
-29 -532 107 0 
-29 -532 301 0 
-29 -532 -246 0 
-246 -533 113 0 
-246 -533 310 0 
-246 -533 -255 0 
-255 -534 119 0 
-255 -534 319 0 
-255 -534 -264 0 
-264 -535 125 0 
-264 -535 328 0 
-264 -535 -273 0 
-273 -536 131 0 
-273 -536 337 0 
-273 -536 -282 0 
-282 -537 137 0 
-282 -537 346 0 
-282 -537 -291 0 
-291 -538 143 0 
-291 -538 355 0 
-291 -538 -300 0 
-29 -539 144 0 
-29 -539 356 0 
-29 -539 -246 0 
-246 -540 150 0 
-246 -540 365 0 
-246 -540 -255 0 
-255 -541 156 0 
-255 -541 374 0 
-255 -541 -264 0 
-264 -542 162 0 
-264 -542 383 0 
-264 -542 -273 0 
-273 -543 168 0 
-273 -543 392 0 
-273 -543 -282 0 
-282 -544 174 0 
-282 -544 401 0 
-282 -544 -291 0 
-291 -545 180 0 
-291 -545 410 0 
-291 -545 -300 0 
-29 -546 181 0 
-29 -546 411 0 
-29 -546 -246 0 
-246 -547 187 0 
-246 -547 420 0 
-246 -547 -255 0 
-255 -548 193 0 
-255 -548 429 0 
-255 -548 -264 0 
-264 -549 199 0 
-264 -549 438 0 
-264 -549 -273 0 
-273 -550 205 0 
-273 -550 447 0 
-273 -550 -282 0 
-282 -551 211 0 
-282 -551 456 0 
-282 -551 -291 0 
-291 -552 217 0 
-291 -552 465 0 
-291 -552 -300 0 
-38 -553 70 0 
-38 -553 246 0 
-38 -553 -301 0 
-301 -554 76 0 
-301 -554 255 0 
-301 -554 -310 0 
-310 -555 82 0 
-310 -555 264 0 
-310 -555 -319 0 
-319 -556 88 0 
-319 -556 273 0 
-319 -556 -328 0 
-328 -557 94 0 
-328 -557 282 0 
-328 -557 -337 0 
-337 -558 100 0 
-337 -558 291 0 
-337 -558 -346 0 
-346 -559 106 0 
-346 -559 300 0 
-346 -559 -355 0 
-38 -26 -560 107 0 
-38 -26 -560 301 0 
-38 -26 -560 -301 0 
-301 -225 -561 113 0 
-301 -225 -561 310 0 
-301 -225 -561 -310 0 
-310 -226 -562 119 0 
-310 -226 -562 319 0 
-310 -226 -562 -319 0 
-319 -227 -563 125 0 
-319 -227 -563 328 0 
-319 -227 -563 -328 0 
-328 -228 -564 131 0 
-328 -228 -564 337 0 
-328 -228 -564 -337 0 
-337 -229 -565 137 0 
-337 -229 -565 346 0 
-337 -229 -565 -346 0 
-346 -230 -566 143 0 
-346 -230 -566 355 0 
-346 -230 -566 -355 0 
-38 -567 144 0 
-38 -567 356 0 
-38 -567 -301 0 
-301 -568 150 0 
-301 -568 365 0 
-301 -568 -310 0 
-310 -569 156 0 
-310 -569 374 0 
-310 -569 -319 0 
-319 -570 162 0 
-319 -570 383 0 
-319 -570 -328 0 
-328 -571 168 0 
-328 -571 392 0 
-328 -571 -337 0 
-337 -572 174 0 
-337 -572 401 0 
-337 -572 -346 0 
-346 -573 180 0 
-346 -573 410 0 
-346 -573 -355 0 
-38 -574 181 0 
-38 -574 411 0 
-38 -574 -301 0 
-301 -575 187 0 
-301 -575 420 0 
-301 -575 -310 0 
-310 -576 193 0 
-310 -576 429 0 
-310 -576 -319 0 
-319 -577 199 0 
-319 -577 438 0 
-319 -577 -328 0 
-328 -578 205 0 
-328 -578 447 0 
-328 -578 -337 0 
-337 -579 211 0 
-337 -579 456 0 
-337 -579 -346 0 
-346 -580 217 0 
-346 -580 465 0 
-346 -580 -355 0 
-47 -581 70 0 
-47 -581 246 0 
-47 -581 -356 0 
-356 -582 76 0 
-356 -582 255 0 
-356 -582 -365 0 
-365 -583 82 0 
-365 -583 264 0 
-365 -583 -374 0 
-374 -584 88 0 
-374 -584 273 0 
-374 -584 -383 0 
-383 -585 94 0 
-383 -585 282 0 
-383 -585 -392 0 
-392 -586 100 0 
-392 -586 291 0 
-392 -586 -401 0 
-401 -587 106 0 
-401 -587 300 0 
-401 -587 -410 0 
-47 -588 107 0 
-47 -588 301 0 
-47 -588 -356 0 
-356 -589 113 0 
-356 -589 310 0 
-356 -589 -365 0 
-365 -590 119 0 
-365 -590 319 0 
-365 -590 -374 0 
-374 -591 125 0 
-374 -591 328 0 
-374 -591 -383 0 
-383 -592 131 0 
-383 -592 337 0 
-383 -592 -392 0 
-392 -593 137 0 
-392 -593 346 0 
-392 -593 -401 0 
-401 -594 143 0 
-401 -594 355 0 
-401 -594 -410 0 
-47 -27 -595 144 0 
-47 -27 -595 356 0 
-47 -27 -595 -356 0 
-356 -232 -596 150 0 
-356 -232 -596 365 0 
-356 -232 -596 -365 0 
-365 -233 -597 156 0 
-365 -233 -597 374 0 
-365 -233 -597 -374 0 
-374 -234 -598 162 0 
-374 -234 -598 383 0 
-374 -234 -598 -383 0 
-383 -235 -599 168 0 
-383 -235 -599 392 0 
-383 -235 -599 -392 0 
-392 -236 -600 174 0 
-392 -236 -600 401 0 
-392 -236 -600 -401 0 
-401 -237 -601 180 0 
-401 -237 -601 410 0 
-401 -237 -601 -410 0 
-47 -602 181 0 
-47 -602 411 0 
-47 -602 -356 0 
-356 -603 187 0 
-356 -603 420 0 
-356 -603 -365 0 
-365 -604 193 0 
-365 -604 429 0 
-365 -604 -374 0 
-374 -605 199 0 
-374 -605 438 0 
-374 -605 -383 0 
-383 -606 205 0 
-383 -606 447 0 
-383 -606 -392 0 
-392 -607 211 0 
-392 -607 456 0 
-392 -607 -401 0 
-401 -608 217 0 
-401 -608 465 0 
-401 -608 -410 0 
-56 -609 70 0 
-56 -609 246 0 
-56 -609 -411 0 
-411 -610 76 0 
-411 -610 255 0 
-411 -610 -420 0 
-420 -611 82 0 
-420 -611 264 0 
-420 -611 -429 0 
-429 -612 88 0 
-429 -612 273 0 
-429 -612 -438 0 
-438 -613 94 0 
-438 -613 282 0 
-438 -613 -447 0 
-447 -614 100 0 
-447 -614 291 0 
-447 -614 -456 0 
-456 -615 106 0 
-456 -615 300 0 
-456 -615 -465 0 
-56 -616 107 0 
-56 -616 301 0 
-56 -616 -411 0 
-411 -617 113 0 
-411 -617 310 0 
-411 -617 -420 0 
-420 -618 119 0 
-420 -618 319 0 
-420 -618 -429 0 
-429 -619 125 0 
-429 -619 328 0 
-429 -619 -438 0 
-438 -620 131 0 
-438 -620 337 0 
-438 -620 -447 0 
-447 -621 137 0 
-447 -621 346 0 
-447 -621 -456 0 
-456 -622 143 0 
-456 -622 355 0 
-456 -622 -465 0 
-56 -623 144 0 
-56 -623 356 0 
-56 -623 -411 0 
-411 -624 150 0 
-411 -624 365 0 
-411 -624 -420 0 
-420 -625 156 0 
-420 -625 374 0 
-420 -625 -429 0 
-429 -626 162 0 
-429 -626 383 0 
-429 -626 -438 0 
-438 -627 168 0 
-438 -627 392 0 
-438 -627 -447 0 
-447 -628 174 0 
-447 -628 401 0 
-447 -628 -456 0 
-456 -629 180 0 
-456 -629 410 0 
-456 -629 -465 0 
-56 -28 -630 181 0 
-56 -28 -630 411 0 
-56 -28 -630 -411 0 
-411 -239 -631 187 0 
-411 -239 -631 420 0 
-411 -239 -631 -420 0 
-420 -240 -632 193 0 
-420 -240 -632 429 0 
-420 -240 -632 -429 0 
-429 -241 -633 199 0 
-429 -241 -633 438 0 
-429 -241 -633 -438 0 
-438 -242 -634 205 0 
-438 -242 -634 447 0 
-438 -242 -634 -447 0 
-447 -243 -635 211 0 
-447 -243 -635 456 0 
-447 -243 -635 -456 0 
-456 -244 -636 217 0 
-456 -244 -636 465 0 
-456 -244 -636 -465 0 
-1 70 0 
-29 -497 2 0 
-2 29 0 
-2 497 0 
-29 -25 -525 3 0 
-3 29 0 
-3 25 0 
-3 525 0 
-38 -553 4 0 
-4 38 0 
-4 553 0 
-47 -581 5 0 
-5 47 0 
-5 581 0 
-56 -609 6 0 
-6 56 0 
-6 609 0 
2 3 4 5 6 1 -70 0 
-70 76 0 
-246 -498 71 0 
-71 246 0 
-71 498 0 
-246 -218 -526 72 0 
-72 246 0 
-72 218 0 
-72 526 0 
-301 -554 73 0 
-73 301 0 
-73 554 0 
-356 -582 74 0 
-74 356 0 
-74 582 0 
-411 -610 75 0 
-75 411 0 
-75 610 0 
71 72 73 74 75 70 -76 0 
-76 82 0 
-255 -499 77 0 
-77 255 0 
-77 499 0 
-255 -219 -527 78 0 
-78 255 0 
-78 219 0 
-78 527 0 
-310 -555 79 0 
-79 310 0 
-79 555 0 
-365 -583 80 0 
-80 365 0 
-80 583 0 
-420 -611 81 0 
-81 420 0 
-81 611 0 
77 78 79 80 81 76 -82 0 
-82 88 0 
-264 -500 83 0 
-83 264 0 
-83 500 0 
-264 -220 -528 84 0 
-84 264 0 
-84 220 0 
-84 528 0 
-319 -556 85 0 
-85 319 0 
-85 556 0 
-374 -584 86 0 
-86 374 0 
-86 584 0 
-429 -612 87 0 
-87 429 0 
-87 612 0 
83 84 85 86 87 82 -88 0 
-88 94 0 
-273 -501 89 0 
-89 273 0 
-89 501 0 
-273 -221 -529 90 0 
-90 273 0 
-90 221 0 
-90 529 0 
-328 -557 91 0 
-91 328 0 
-91 557 0 
-383 -585 92 0 
-92 383 0 
-92 585 0 
-438 -613 93 0 
-93 438 0 
-93 613 0 
89 90 91 92 93 88 -94 0 
-94 100 0 
-282 -502 95 0 
-95 282 0 
-95 502 0 
-282 -222 -530 96 0 
-96 282 0 
-96 222 0 
-96 530 0 
-337 -558 97 0 
-97 337 0 
-97 558 0 
-392 -586 98 0 
-98 392 0 
-98 586 0 
-447 -614 99 0 
-99 447 0 
-99 614 0 
95 96 97 98 99 94 -100 0 
-100 106 0 
-291 -503 101 0 
-101 291 0 
-101 503 0 
-291 -223 -531 102 0 
-102 291 0 
-102 223 0 
-102 531 0 
-346 -559 103 0 
-103 346 0 
-103 559 0 
-401 -587 104 0 
-104 401 0 
-104 587 0 
-456 -615 105 0 
-105 456 0 
-105 615 0 
101 102 103 104 105 100 -106 0 
-7 107 0 
-38 -504 8 0 
-8 38 0 
-8 504 0 
-29 -532 9 0 
-9 29 0 
-9 532 0 
-38 -26 -560 10 0 
-10 38 0 
-10 26 0 
-10 560 0 
-47 -588 11 0 
-11 47 0 
-11 588 0 
-56 -616 12 0 
-12 56 0 
-12 616 0 
8 9 10 11 12 7 -107 0 
-107 113 0 
-301 -505 108 0 
-108 301 0 
-108 505 0 
-246 -533 109 0 
-109 246 0 
-109 533 0 
-301 -225 -561 110 0 
-110 301 0 
-110 225 0 
-110 561 0 
-356 -589 111 0 
-111 356 0 
-111 589 0 
-411 -617 112 0 
-112 411 0 
-112 617 0 
108 109 110 111 112 107 -113 0 
-113 119 0 
-310 -506 114 0 
-114 310 0 
-114 506 0 
-255 -534 115 0 
-115 255 0 
-115 534 0 
-310 -226 -562 116 0 
-116 310 0 
-116 226 0 
-116 562 0 
-365 -590 117 0 
-117 365 0 
-117 590 0 
-420 -618 118 0 
-118 420 0 
-118 618 0 
114 115 116 117 118 113 -119 0 
-119 125 0 
-319 -507 120 0 
-120 319 0 
-120 507 0 
-264 -535 121 0 
-121 264 0 
-121 535 0 
-319 -227 -563 122 0 
-122 319 0 
-122 227 0 
-122 563 0 
-374 -591 123 0 
-123 374 0 
-123 591 0 
-429 -619 124 0 
-124 429 0 
-124 619 0 
120 121 122 123 124 119 -125 0 
-125 131 0 
-328 -508 126 0 
-126 328 0 
-126 508 0 
-273 -536 127 0 
-127 273 0 
-127 536 0 
-328 -228 -564 128 0 
-128 328 0 
-128 228 0 
-128 564 0 
-383 -592 129 0 
-129 383 0 
-129 592 0 
-438 -620 130 0 
-130 438 0 
-130 620 0 
126 127 128 129 130 125 -131 0 
-131 137 0 
-337 -509 132 0 
-132 337 0 
-132 509 0 
-282 -537 133 0 
-133 282 0 
-133 537 0 
-337 -229 -565 134 0 
-134 337 0 
-134 229 0 
-134 565 0 
-392 -593 135 0 
-135 392 0 
-135 593 0 
-447 -621 136 0 
-136 447 0 
-136 621 0 
132 133 134 135 136 131 -137 0 
-137 143 0 
-346 -510 138 0 
-138 346 0 
-138 510 0 
-291 -538 139 0 
-139 291 0 
-139 538 0 
-346 -230 -566 140 0 
-140 346 0 
-140 230 0 
-140 566 0 
-401 -594 141 0 
-141 401 0 
-141 594 0 
-456 -622 142 0 
-142 456 0 
-142 622 0 
138 139 140 141 142 137 -143 0 
-13 144 0 
-47 -511 14 0 
-14 47 0 
-14 511 0 
-29 -539 15 0 
-15 29 0 
-15 539 0 
-38 -567 16 0 
-16 38 0 
-16 567 0 
-47 -27 -595 17 0 
-17 47 0 
-17 27 0 
-17 595 0 
-56 -623 18 0 
-18 56 0 
-18 623 0 
14 15 16 17 18 13 -144 0 
-144 150 0 
-356 -512 145 0 
-145 356 0 
-145 512 0 
-246 -540 146 0 
-146 246 0 
-146 540 0 
-301 -568 147 0 
-147 301 0 
-147 568 0 
-356 -232 -596 148 0 
-148 356 0 
-148 232 0 
-148 596 0 
-411 -624 149 0 
-149 411 0 
-149 624 0 
145 146 147 148 149 144 -150 0 
-150 156 0 
-365 -513 151 0 
-151 365 0 
-151 513 0 
-255 -541 152 0 
-152 255 0 
-152 541 0 
-310 -569 153 0 
-153 310 0 
-153 569 0 
-365 -233 -597 154 0 
-154 365 0 
-154 233 0 
-154 597 0 
-420 -625 155 0 
-155 420 0 
-155 625 0 
151 152 153 154 155 150 -156 0 
-156 162 0 
-374 -514 157 0 
-157 374 0 
-157 514 0 
-264 -542 158 0 
-158 264 0 
-158 542 0 
-319 -570 159 0 
-159 319 0 
-159 570 0 
-374 -234 -598 160 0 
-160 374 0 
-160 234 0 
-160 598 0 
-429 -626 161 0 
-161 429 0 
-161 626 0 
157 158 159 160 161 156 -162 0 
-162 168 0 
-383 -515 163 0 
-163 383 0 
-163 515 0 
-273 -543 164 0 
-164 273 0 
-164 543 0 
-328 -571 165 0 
-165 328 0 
-165 571 0 
-383 -235 -599 166 0 
-166 383 0 
-166 235 0 
-166 599 0 
-438 -627 167 0 
-167 438 0 
-167 627 0 
163 164 165 166 167 162 -168 0 
-168 174 0 
-392 -516 169 0 
-169 392 0 
-169 516 0 
-282 -544 170 0 
-170 282 0 
-170 544 0 
-337 -572 171 0 
-171 337 0 
-171 572 0 
-392 -236 -600 172 0 
-172 392 0 
-172 236 0 
-172 600 0 
-447 -628 173 0 
-173 447 0 
-173 628 0 
169 170 171 172 173 168 -174 0 
-174 180 0 
-401 -517 175 0 
-175 401 0 
-175 517 0 
-291 -545 176 0 
-176 291 0 
-176 545 0 
-346 -573 177 0 
-177 346 0 
-177 573 0 
-401 -237 -601 178 0 
-178 401 0 
-178 237 0 
-178 601 0 
-456 -629 179 0 
-179 456 0 
-179 629 0 
175 176 177 178 179 174 -180 0 
-19 181 0 
-56 -518 20 0 
-20 56 0 
-20 518 0 
-29 -546 21 0 
-21 29 0 
-21 546 0 
-38 -574 22 0 
-22 38 0 
-22 574 0 
-47 -602 23 0 
-23 47 0 
-23 602 0 
-56 -28 -630 24 0 
-24 56 0 
-24 28 0 
-24 630 0 
20 21 22 23 24 19 -181 0 
-181 187 0 
-411 -519 182 0 
-182 411 0 
-182 519 0 
-246 -547 183 0 
-183 246 0 
-183 547 0 
-301 -575 184 0 
-184 301 0 
-184 575 0 
-356 -603 185 0 
-185 356 0 
-185 603 0 
-411 -239 -631 186 0 
-186 411 0 
-186 239 0 
-186 631 0 
182 183 184 185 186 181 -187 0 
-187 193 0 
-420 -520 188 0 
-188 420 0 
-188 520 0 
-255 -548 189 0 
-189 255 0 
-189 548 0 
-310 -576 190 0 
-190 310 0 
-190 576 0 
-365 -604 191 0 
-191 365 0 
-191 604 0 
-420 -240 -632 192 0 
-192 420 0 
-192 240 0 
-192 632 0 
188 189 190 191 192 187 -193 0 
-193 199 0 
-429 -521 194 0 
-194 429 0 
-194 521 0 
-264 -549 195 0 
-195 264 0 
-195 549 0 
-319 -577 196 0 
-196 319 0 
-196 577 0 
-374 -605 197 0 
-197 374 0 
-197 605 0 
-429 -241 -633 198 0 
-198 429 0 
-198 241 0 
-198 633 0 
194 195 196 197 198 193 -199 0 
-199 205 0 
-438 -522 200 0 
-200 438 0 
-200 522 0 
-273 -550 201 0 
-201 273 0 
-201 550 0 
-328 -578 202 0 
-202 328 0 
-202 578 0 
-383 -606 203 0 
-203 383 0 
-203 606 0 
-438 -242 -634 204 0 
-204 438 0 
-204 242 0 
-204 634 0 
200 201 202 203 204 199 -205 0 
-205 211 0 
-447 -523 206 0 
-206 447 0 
-206 523 0 
-282 -551 207 0 
-207 282 0 
-207 551 0 
-337 -579 208 0 
-208 337 0 
-208 579 0 
-392 -607 209 0 
-209 392 0 
-209 607 0 
-447 -243 -635 210 0 
-210 447 0 
-210 243 0 
-210 635 0 
206 207 208 209 210 205 -211 0 
-211 217 0 
-456 -524 212 0 
-212 456 0 
-212 524 0 
-291 -552 213 0 
-213 291 0 
-213 552 0 
-346 -580 214 0 
-214 346 0 
-214 580 0 
-401 -608 215 0 
-215 401 0 
-215 608 0 
-456 -244 -636 216 0 
-216 456 0 
-216 244 0 
-216 636 0 
212 213 214 215 216 211 -217 0 
-25 218 0 
25 -218 0 
-218 219 0 
218 -219 0 
-219 220 0 
219 -220 0 
-220 221 0 
220 -221 0 
-221 222 0 
221 -222 0 
-222 223 0 
222 -223 0 
-223 224 0 
223 -224 0 
-26 225 0 
26 -225 0 
-225 226 0 
225 -226 0 
-226 227 0 
226 -227 0 
-227 228 0 
227 -228 0 
-228 229 0 
228 -229 0 
-229 230 0 
229 -230 0 
-230 231 0 
230 -231 0 
-27 232 0 
27 -232 0 
-232 233 0 
232 -233 0 
-233 234 0 
233 -234 0 
-234 235 0 
234 -235 0 
-235 236 0 
235 -236 0 
-236 237 0 
236 -237 0 
-237 238 0 
237 -238 0 
-28 239 0 
28 -239 0 
-239 240 0 
239 -240 0 
-240 241 0 
240 -241 0 
-241 242 0 
241 -242 0 
-242 243 0 
242 -243 0 
-243 244 0 
243 -244 0 
-244 245 0 
244 -245 0 
-29 -25 -525 30 0 
-30 29 0 
-30 25 0 
-30 525 0 
-29 -532 31 0 
-31 29 0 
-31 532 0 
-29 -539 32 0 
-32 29 0 
-32 539 0 
-29 -546 33 0 
-33 29 0 
-33 546 0 
30 31 32 33 -29 246 0 
-29 -25 -525 34 0 
-34 29 0 
-34 25 0 
-34 525 0 
-38 -553 35 0 
-35 38 0 
-35 553 0 
-47 -581 36 0 
-36 47 0 
-36 581 0 
-56 -609 37 0 
-37 56 0 
-37 609 0 
34 35 36 37 29 -246 0 
-246 -218 -526 247 0 
-247 246 0 
-247 218 0 
-247 526 0 
-246 -533 248 0 
-248 246 0 
-248 533 0 
-246 -540 249 0 
-249 246 0 
-249 540 0 
-246 -547 250 0 
-250 246 0 
-250 547 0 
247 248 249 250 -246 255 0 
-246 -218 -526 251 0 
-251 246 0 
-251 218 0 
-251 526 0 
-301 -554 252 0 
-252 301 0 
-252 554 0 
-356 -582 253 0 
-253 356 0 
-253 582 0 
-411 -610 254 0 
-254 411 0 
-254 610 0 
251 252 253 254 246 -255 0 
-255 -219 -527 256 0 
-256 255 0 
-256 219 0 
-256 527 0 
-255 -534 257 0 
-257 255 0 
-257 534 0 
-255 -541 258 0 
-258 255 0 
-258 541 0 
-255 -548 259 0 
-259 255 0 
-259 548 0 
256 257 258 259 -255 264 0 
-255 -219 -527 260 0 
-260 255 0 
-260 219 0 
-260 527 0 
-310 -555 261 0 
-261 310 0 
-261 555 0 
-365 -583 262 0 
-262 365 0 
-262 583 0 
-420 -611 263 0 
-263 420 0 
-263 611 0 
260 261 262 263 255 -264 0 
-264 -220 -528 265 0 
-265 264 0 
-265 220 0 
-265 528 0 
-264 -535 266 0 
-266 264 0 
-266 535 0 
-264 -542 267 0 
-267 264 0 
-267 542 0 
-264 -549 268 0 
-268 264 0 
-268 549 0 
265 266 267 268 -264 273 0 
-264 -220 -528 269 0 
-269 264 0 
-269 220 0 
-269 528 0 
-319 -556 270 0 
-270 319 0 
-270 556 0 
-374 -584 271 0 
-271 374 0 
-271 584 0 
-429 -612 272 0 
-272 429 0 
-272 612 0 
269 270 271 272 264 -273 0 
-273 -221 -529 274 0 
-274 273 0 
-274 221 0 
-274 529 0 
-273 -536 275 0 
-275 273 0 
-275 536 0 
-273 -543 276 0 
-276 273 0 
-276 543 0 
-273 -550 277 0 
-277 273 0 
-277 550 0 
274 275 276 277 -273 282 0 
-273 -221 -529 278 0 
-278 273 0 
-278 221 0 
-278 529 0 
-328 -557 279 0 
-279 328 0 
-279 557 0 
-383 -585 280 0 
-280 383 0 
-280 585 0 
-438 -613 281 0 
-281 438 0 
-281 613 0 
278 279 280 281 273 -282 0 
-282 -222 -530 283 0 
-283 282 0 
-283 222 0 
-283 530 0 
-282 -537 284 0 
-284 282 0 
-284 537 0 
-282 -544 285 0 
-285 282 0 
-285 544 0 
-282 -551 286 0 
-286 282 0 
-286 551 0 
283 284 285 286 -282 291 0 
-282 -222 -530 287 0 
-287 282 0 
-287 222 0 
-287 530 0 
-337 -558 288 0 
-288 337 0 
-288 558 0 
-392 -586 289 0 
-289 392 0 
-289 586 0 
-447 -614 290 0 
-290 447 0 
-290 614 0 
287 288 289 290 282 -291 0 
-291 -223 -531 292 0 
-292 291 0 
-292 223 0 
-292 531 0 
-291 -538 293 0 
-293 291 0 
-293 538 0 
-291 -545 294 0 
-294 291 0 
-294 545 0 
-291 -552 295 0 
-295 291 0 
-295 552 0 
292 293 294 295 -291 300 0 
-291 -223 -531 296 0 
-296 291 0 
-296 223 0 
-296 531 0 
-346 -559 297 0 
-297 346 0 
-297 559 0 
-401 -587 298 0 
-298 401 0 
-298 587 0 
-456 -615 299 0 
-299 456 0 
-299 615 0 
296 297 298 299 291 -300 0 
-38 -553 39 0 
-39 38 0 
-39 553 0 
-38 -26 -560 40 0 
-40 38 0 
-40 26 0 
-40 560 0 
-38 -567 41 0 
-41 38 0 
-41 567 0 
-38 -574 42 0 
-42 38 0 
-42 574 0 
39 40 41 42 -38 301 0 
-29 -532 43 0 
-43 29 0 
-43 532 0 
-38 -26 -560 44 0 
-44 38 0 
-44 26 0 
-44 560 0 
-47 -588 45 0 
-45 47 0 
-45 588 0 
-56 -616 46 0 
-46 56 0 
-46 616 0 
43 44 45 46 38 -301 0 
-301 -554 302 0 
-302 301 0 
-302 554 0 
-301 -225 -561 0 
-301 -568 304 0 
-304 301 0 
-304 568 0 
-301 -575 305 0 
-305 301 0 
-305 575 0 
302 304 305 -301 310 0 
-246 -533 306 0 
-306 246 0 
-306 533 0 
-301 -225 -561 307 0 
-307 301 0 
-307 225 0 
-307 561 0 
-356 -589 308 0 
-308 356 0 
-308 589 0 
-411 -617 309 0 
-309 411 0 
-309 617 0 
306 307 308 309 301 -310 0 
-310 -555 311 0 
-311 310 0 
-311 555 0 
-310 -226 -562 312 0 
-312 310 0 
-312 226 0 
-312 562 0 
-310 -569 313 0 
-313 310 0 
-313 569 0 
-310 -576 314 0 
-314 310 0 
-314 576 0 
311 312 313 314 -310 319 0 
-255 -534 315 0 
-315 255 0 
-315 534 0 
-310 -226 -562 316 0 
-316 310 0 
-316 226 0 
-316 562 0 
-365 -590 317 0 
-317 365 0 
-317 590 0 
-420 -618 318 0 
-318 420 0 
-318 618 0 
315 316 317 318 310 -319 0 
-319 -556 320 0 
-320 319 0 
-320 556 0 
-319 -227 -563 0 
-319 -570 322 0 
-322 319 0 
-322 570 0 
-319 -577 323 0 
-323 319 0 
-323 577 0 
320 322 323 -319 328 0 
-264 -535 324 0 
-324 264 0 
-324 535 0 
-319 -227 -563 325 0 
-325 319 0 
-325 227 0 
-325 563 0 
-374 -591 326 0 
-326 374 0 
-326 591 0 
-429 -619 327 0 
-327 429 0 
-327 619 0 
324 325 326 327 319 -328 0 
-328 -557 329 0 
-329 328 0 
-329 557 0 
-328 -228 -564 330 0 
-330 328 0 
-330 228 0 
-330 564 0 
-328 -571 331 0 
-331 328 0 
-331 571 0 
-328 -578 332 0 
-332 328 0 
-332 578 0 
329 330 331 332 -328 337 0 
-273 -536 333 0 
-333 273 0 
-333 536 0 
-328 -228 -564 334 0 
-334 328 0 
-334 228 0 
-334 564 0 
-383 -592 335 0 
-335 383 0 
-335 592 0 
-438 -620 336 0 
-336 438 0 
-336 620 0 
333 334 335 336 328 -337 0 
-337 -558 338 0 
-338 337 0 
-338 558 0 
-337 -229 -565 339 0 
-339 337 0 
-339 229 0 
-339 565 0 
-337 -572 340 0 
-340 337 0 
-340 572 0 
-337 -579 341 0 
-341 337 0 
-341 579 0 
338 339 340 341 -337 346 0 
-282 -537 342 0 
-342 282 0 
-342 537 0 
-337 -229 -565 343 0 
-343 337 0 
-343 229 0 
-343 565 0 
-392 -593 344 0 
-344 392 0 
-344 593 0 
-447 -621 345 0 
-345 447 0 
-345 621 0 
342 343 344 345 337 -346 0 
-346 -559 347 0 
-347 346 0 
-347 559 0 
-346 -230 -566 348 0 
-348 346 0 
-348 230 0 
-348 566 0 
-346 -573 349 0 
-349 346 0 
-349 573 0 
-346 -580 350 0 
-350 346 0 
-350 580 0 
347 348 349 350 -346 355 0 
-291 -538 351 0 
-351 291 0 
-351 538 0 
-346 -230 -566 352 0 
-352 346 0 
-352 230 0 
-352 566 0 
-401 -594 353 0 
-353 401 0 
-353 594 0 
-456 -622 354 0 
-354 456 0 
-354 622 0 
351 352 353 354 346 -355 0 
-47 -581 48 0 
-48 47 0 
-48 581 0 
-47 -588 49 0 
-49 47 0 
-49 588 0 
-47 -27 -595 50 0 
-50 47 0 
-50 27 0 
-50 595 0 
-47 -602 51 0 
-51 47 0 
-51 602 0 
48 49 50 51 -47 356 0 
-29 -539 52 0 
-52 29 0 
-52 539 0 
-38 -567 53 0 
-53 38 0 
-53 567 0 
-47 -27 -595 54 0 
-54 47 0 
-54 27 0 
-54 595 0 
-56 -623 55 0 
-55 56 0 
-55 623 0 
52 53 54 55 47 -356 0 
-356 -582 357 0 
-357 356 0 
-357 582 0 
-356 -589 358 0 
-358 356 0 
-358 589 0 
-356 -232 -596 359 0 
-359 356 0 
-359 232 0 
-359 596 0 
-356 -603 360 0 
-360 356 0 
-360 603 0 
357 358 359 360 -356 365 0 
-246 -540 361 0 
-361 246 0 
-361 540 0 
-301 -568 362 0 
-362 301 0 
-362 568 0 
-356 -232 -596 363 0 
-363 356 0 
-363 232 0 
-363 596 0 
-411 -624 364 0 
-364 411 0 
-364 624 0 
361 362 363 364 356 -365 0 
-365 -583 366 0 
-366 365 0 
-366 583 0 
-365 -590 367 0 
-367 365 0 
-367 590 0 
-365 -233 -597 368 0 
-368 365 0 
-368 233 0 
-368 597 0 
-365 -604 369 0 
-369 365 0 
-369 604 0 
366 367 368 369 -365 374 0 
-255 -541 370 0 
-370 255 0 
-370 541 0 
-310 -569 371 0 
-371 310 0 
-371 569 0 
-365 -233 -597 372 0 
-372 365 0 
-372 233 0 
-372 597 0 
-420 -625 373 0 
-373 420 0 
-373 625 0 
370 371 372 373 365 -374 0 
-374 -584 375 0 
-375 374 0 
-375 584 0 
-374 -591 376 0 
-376 374 0 
-376 591 0 
-374 -234 -598 377 0 
-377 374 0 
-377 234 0 
-377 598 0 
-374 -605 378 0 
-378 374 0 
-378 605 0 
375 376 377 378 -374 383 0 
-264 -542 379 0 
-379 264 0 
-379 542 0 
-319 -570 380 0 
-380 319 0 
-380 570 0 
-374 -234 -598 381 0 
-381 374 0 
-381 234 0 
-381 598 0 
-429 -626 382 0 
-382 429 0 
-382 626 0 
379 380 381 382 374 -383 0 
-383 -585 384 0 
-384 383 0 
-384 585 0 
-383 -592 385 0 
-385 383 0 
-385 592 0 
-383 -235 -599 386 0 
-386 383 0 
-386 235 0 
-386 599 0 
-383 -606 387 0 
-387 383 0 
-387 606 0 
384 385 386 387 -383 392 0 
-273 -543 388 0 
-388 273 0 
-388 543 0 
-328 -571 389 0 
-389 328 0 
-389 571 0 
-383 -235 -599 0 
-438 -627 391 0 
-391 438 0 
-391 627 0 
388 389 391 383 -392 0 
-392 -586 393 0 
-393 392 0 
-393 586 0 
-392 -593 394 0 
-394 392 0 
-394 593 0 
-392 -236 -600 395 0 
-395 392 0 
-395 236 0 
-395 600 0 
-392 -607 396 0 
-396 392 0 
-396 607 0 
393 394 395 396 -392 401 0 
-282 -544 397 0 
-397 282 0 
-397 544 0 
-337 -572 398 0 
-398 337 0 
-398 572 0 
-392 -236 -600 399 0 
-399 392 0 
-399 236 0 
-399 600 0 
-447 -628 400 0 
-400 447 0 
-400 628 0 
397 398 399 400 392 -401 0 
-401 -587 402 0 
-402 401 0 
-402 587 0 
-401 -594 403 0 
-403 401 0 
-403 594 0 
-401 -237 -601 404 0 
-404 401 0 
-404 237 0 
-404 601 0 
-401 -608 405 0 
-405 401 0 
-405 608 0 
402 403 404 405 -401 410 0 
-291 -545 406 0 
-406 291 0 
-406 545 0 
-346 -573 407 0 
-407 346 0 
-407 573 0 
-401 -237 -601 408 0 
-408 401 0 
-408 237 0 
-408 601 0 
-456 -629 409 0 
-409 456 0 
-409 629 0 
406 407 408 409 401 -410 0 
-56 -609 57 0 
-57 56 0 
-57 609 0 
-56 -616 58 0 
-58 56 0 
-58 616 0 
-56 -623 59 0 
-59 56 0 
-59 623 0 
-56 -28 -630 60 0 
-60 56 0 
-60 28 0 
-60 630 0 
57 58 59 60 -56 411 0 
-29 -546 61 0 
-61 29 0 
-61 546 0 
-38 -574 62 0 
-62 38 0 
-62 574 0 
-47 -602 63 0 
-63 47 0 
-63 602 0 
-56 -28 -630 64 0 
-64 56 0 
-64 28 0 
-64 630 0 
61 62 63 64 56 -411 0 
-411 -610 412 0 
-412 411 0 
-412 610 0 
-411 -617 413 0 
-413 411 0 
-413 617 0 
-411 -624 414 0 
-414 411 0 
-414 624 0 
-411 -239 -631 415 0 
-415 411 0 
-415 239 0 
-415 631 0 
412 413 414 415 -411 420 0 
-246 -547 416 0 
-416 246 0 
-416 547 0 
-301 -575 417 0 
-417 301 0 
-417 575 0 
-356 -603 418 0 
-418 356 0 
-418 603 0 
-411 -239 -631 419 0 
-419 411 0 
-419 239 0 
-419 631 0 
416 417 418 419 411 -420 0 
-420 -611 421 0 
-421 420 0 
-421 611 0 
-420 -618 422 0 
-422 420 0 
-422 618 0 
-420 -625 423 0 
-423 420 0 
-423 625 0 
-420 -240 -632 424 0 
-424 420 0 
-424 240 0 
-424 632 0 
421 422 423 424 -420 429 0 
-255 -548 425 0 
-425 255 0 
-425 548 0 
-310 -576 426 0 
-426 310 0 
-426 576 0 
-365 -604 427 0 
-427 365 0 
-427 604 0 
-420 -240 -632 428 0 
-428 420 0 
-428 240 0 
-428 632 0 
425 426 427 428 420 -429 0 
-429 -612 430 0 
-430 429 0 
-430 612 0 
-429 -619 431 0 
-431 429 0 
-431 619 0 
-429 -626 432 0 
-432 429 0 
-432 626 0 
-429 -241 -633 433 0 
-433 429 0 
-433 241 0 
-433 633 0 
430 431 432 433 -429 438 0 
-264 -549 434 0 
-434 264 0 
-434 549 0 
-319 -577 435 0 
-435 319 0 
-435 577 0 
-374 -605 436 0 
-436 374 0 
-436 605 0 
-429 -241 -633 437 0 
-437 429 0 
-437 241 0 
-437 633 0 
434 435 436 437 429 -438 0 
-438 -613 439 0 
-439 438 0 
-439 613 0 
-438 -620 440 0 
-440 438 0 
-440 620 0 
-438 -627 441 0 
-441 438 0 
-441 627 0 
-438 -242 -634 442 0 
-442 438 0 
-442 242 0 
-442 634 0 
439 440 441 442 -438 447 0 
-273 -550 443 0 
-443 273 0 
-443 550 0 
-328 -578 444 0 
-444 328 0 
-444 578 0 
-383 -606 445 0 
-445 383 0 
-445 606 0 
-438 -242 -634 446 0 
-446 438 0 
-446 242 0 
-446 634 0 
443 444 445 446 438 -447 0 
-447 -614 448 0 
-448 447 0 
-448 614 0 
-447 -621 449 0 
-449 447 0 
-449 621 0 
-447 -628 450 0 
-450 447 0 
-450 628 0 
-447 -243 -635 451 0 
-451 447 0 
-451 243 0 
-451 635 0 
448 449 450 451 -447 456 0 
-282 -551 452 0 
-452 282 0 
-452 551 0 
-337 -579 453 0 
-453 337 0 
-453 579 0 
-392 -607 454 0 
-454 392 0 
-454 607 0 
-447 -243 -635 455 0 
-455 447 0 
-455 243 0 
-455 635 0 
452 453 454 455 447 -456 0 
-456 -615 457 0 
-457 456 0 
-457 615 0 
-456 -622 458 0 
-458 456 0 
-458 622 0 
-456 -629 459 0 
-459 456 0 
-459 629 0 
-456 -244 -636 460 0 
-460 456 0 
-460 244 0 
-460 636 0 
457 458 459 460 -456 465 0 
-291 -552 461 0 
-461 291 0 
-461 552 0 
-346 -580 462 0 
-462 346 0 
-462 580 0 
-401 -608 463 0 
-463 401 0 
-463 608 0 
-456 -244 -636 464 0 
-464 456 0 
-464 244 0 
-464 636 0 
461 462 463 464 456 -465 0 
-65 466 0 
-29 -497 66 0 
-66 29 0 
-66 497 0 
-38 -504 67 0 
-67 38 0 
-67 504 0 
-47 -511 68 0 
-68 47 0 
-68 511 0 
-56 -518 69 0 
-69 56 0 
-69 518 0 
66 67 68 69 65 -466 0 
-466 471 0 
-246 -498 467 0 
-467 246 0 
-467 498 0 
-301 -505 468 0 
-468 301 0 
-468 505 0 
-356 -512 469 0 
-469 356 0 
-469 512 0 
-411 -519 470 0 
-470 411 0 
-470 519 0 
467 468 469 470 466 -471 0 
-471 476 0 
-255 -499 472 0 
-472 255 0 
-472 499 0 
-310 -506 473 0 
-473 310 0 
-473 506 0 
-365 -513 474 0 
-474 365 0 
-474 513 0 
-420 -520 475 0 
-475 420 0 
-475 520 0 
472 473 474 475 471 -476 0 
-476 481 0 
-264 -500 477 0 
-477 264 0 
-477 500 0 
-319 -507 478 0 
-478 319 0 
-478 507 0 
-374 -514 479 0 
-479 374 0 
-479 514 0 
-429 -521 480 0 
-480 429 0 
-480 521 0 
477 478 479 480 476 -481 0 
-481 486 0 
-273 -501 482 0 
-482 273 0 
-482 501 0 
-328 -508 483 0 
-483 328 0 
-483 508 0 
-383 -515 484 0 
-484 383 0 
-484 515 0 
-438 -522 485 0 
-485 438 0 
-485 522 0 
482 483 484 485 481 -486 0 
-486 491 0 
-282 -502 487 0 
-487 282 0 
-487 502 0 
-337 -509 488 0 
-488 337 0 
-488 509 0 
-392 -516 489 0 
-489 392 0 
-489 516 0 
-447 -523 490 0 
-490 447 0 
-490 523 0 
487 488 489 490 486 -491 0 
-491 496 0 
-291 -503 492 0 
-492 291 0 
-492 503 0 
-346 -510 493 0 
-493 346 0 
-493 510 0 
-401 -517 494 0 
-494 401 0 
-494 517 0 
-456 -524 495 0 
-495 456 0 
-495 524 0 
492 493 494 495 491 -496 0 
-525 -532 0 
-525 -539 0 
-525 -546 0 
-525 -553 0 
-525 -581 0 
-525 -609 0 
-526 -533 0 
-526 -540 0 
-526 -547 0 
-526 -554 0 
-526 -582 0 
-526 -610 0 
-527 -534 0 
-527 -541 0 
-527 -548 0 
-527 -555 0 
-527 -583 0 
-527 -611 0 
-528 -535 0 
-528 -542 0 
-528 -549 0 
-528 -556 0 
-528 -584 0 
-528 -612 0 
-529 -536 0 
-529 -543 0 
-529 -550 0 
-529 -557 0 
-529 -585 0 
-529 -613 0 
-530 -537 0 
-530 -544 0 
-530 -551 0 
-530 -558 0 
-530 -586 0 
-530 -614 0 
-531 -538 0 
-531 -545 0 
-531 -552 0 
-531 -559 0 
-531 -587 0 
-531 -615 0 
-532 -553 0 
-532 -560 0 
-532 -567 0 
-532 -574 0 
-532 -581 0 
-532 -609 0 
-533 -554 0 
-533 -561 0 
-533 -568 0 
-533 -575 0 
-533 -582 0 
-533 -610 0 
-534 -555 0 
-534 -562 0 
-534 -569 0 
-534 -576 0 
-534 -583 0 
-534 -611 0 
-535 -556 0 
-535 -563 0 
-535 -570 0 
-535 -577 0 
-535 -584 0 
-535 -612 0 
-536 -557 0 
-536 -564 0 
-536 -571 0 
-536 -578 0 
-536 -585 0 
-536 -613 0 
-537 -558 0 
-537 -565 0 
-537 -572 0 
-537 -579 0 
-537 -586 0 
-537 -614 0 
-538 -559 0 
-538 -566 0 
-538 -573 0 
-538 -580 0 
-538 -587 0 
-538 -615 0 
-539 -553 0 
-539 -581 0 
-539 -588 0 
-539 -595 0 
-539 -602 0 
-539 -609 0 
-540 -554 0 
-540 -582 0 
-540 -589 0 
-540 -596 0 
-540 -603 0 
-540 -610 0 
-541 -555 0 
-541 -583 0 
-541 -590 0 
-541 -597 0 
-541 -604 0 
-541 -611 0 
-542 -556 0 
-542 -584 0 
-542 -591 0 
-542 -598 0 
-542 -605 0 
-542 -612 0 
-543 -557 0 
-543 -585 0 
-543 -592 0 
-543 -599 0 
-543 -606 0 
-543 -613 0 
-544 -558 0 
-544 -586 0 
-544 -593 0 
-544 -600 0 
-544 -607 0 
-544 -614 0 
-545 -559 0 
-545 -587 0 
-545 -594 0 
-545 -601 0 
-545 -608 0 
-545 -615 0 
-546 -553 0 
-546 -581 0 
-546 -609 0 
-546 -616 0 
-546 -623 0 
-546 -630 0 
-547 -554 0 
-547 -582 0 
-547 -610 0 
-547 -617 0 
-547 -624 0 
-547 -631 0 
-548 -555 0 
-548 -583 0 
-548 -611 0 
-548 -618 0 
-548 -625 0 
-548 -632 0 
-549 -556 0 
-549 -584 0 
-549 -612 0 
-549 -619 0 
-549 -626 0 
-549 -633 0 
-550 -557 0 
-550 -585 0 
-550 -613 0 
-550 -620 0 
-550 -627 0 
-550 -634 0 
-551 -558 0 
-551 -586 0 
-551 -614 0 
-551 -621 0 
-551 -628 0 
-551 -635 0 
-552 -559 0 
-552 -587 0 
-552 -615 0 
-552 -622 0 
-552 -629 0 
-552 -636 0 
-553 -560 0 
-553 -588 0 
-553 -616 0 
-554 -561 0 
-554 -589 0 
-554 -617 0 
-555 -562 0 
-555 -590 0 
-555 -618 0 
-556 -563 0 
-556 -591 0 
-556 -619 0 
-557 -564 0 
-557 -592 0 
-557 -620 0 
-558 -565 0 
-558 -593 0 
-558 -621 0 
-559 -566 0 
-559 -594 0 
-559 -622 0 
-560 -567 0 
-560 -574 0 
-560 -588 0 
-560 -616 0 
-561 -568 0 
-561 -575 0 
-561 -589 0 
-561 -617 0 
-562 -569 0 
-562 -576 0 
-562 -590 0 
-562 -618 0 
-563 -570 0 
-563 -577 0 
-563 -591 0 
-563 -619 0 
-564 -571 0 
-564 -578 0 
-564 -592 0 
-564 -620 0 
-565 -572 0 
-565 -579 0 
-565 -593 0 
-565 -621 0 
-566 -573 0 
-566 -580 0 
-566 -594 0 
-566 -622 0 
-567 -581 0 
-567 -588 0 
-567 -595 0 
-567 -602 0 
-567 -616 0 
-568 -582 0 
-568 -589 0 
-568 -596 0 
-568 -603 0 
-568 -617 0 
-569 -583 0 
-569 -590 0 
-569 -597 0 
-569 -604 0 
-569 -618 0 
-570 -584 0 
-570 -591 0 
-570 -598 0 
-570 -605 0 
-570 -619 0 
-571 -585 0 
-571 -592 0 
-571 -599 0 
-571 -606 0 
-571 -620 0 
-572 -586 0 
-572 -593 0 
-572 -600 0 
-572 -607 0 
-572 -621 0 
-573 -587 0 
-573 -594 0 
-573 -601 0 
-573 -608 0 
-573 -622 0 
-574 -588 0 
-574 -609 0 
-574 -616 0 
-574 -623 0 
-574 -630 0 
-575 -589 0 
-575 -610 0 
-575 -617 0 
-575 -624 0 
-575 -631 0 
-576 -590 0 
-576 -611 0 
-576 -618 0 
-576 -625 0 
-576 -632 0 
-577 -591 0 
-577 -612 0 
-577 -619 0 
-577 -626 0 
-577 -633 0 
-578 -592 0 
-578 -613 0 
-578 -620 0 
-578 -627 0 
-578 -634 0 
-579 -593 0 
-579 -614 0 
-579 -621 0 
-579 -628 0 
-579 -635 0 
-580 -594 0 
-580 -615 0 
-580 -622 0 
-580 -629 0 
-580 -636 0 
-581 -595 0 
-581 -623 0 
-582 -596 0 
-582 -624 0 
-583 -597 0 
-583 -625 0 
-584 -598 0 
-584 -626 0 
-585 -599 0 
-585 -627 0 
-586 -600 0 
-586 -628 0 
-587 -601 0 
-587 -629 0 
-588 -595 0 
-588 -623 0 
-589 -596 0 
-589 -624 0 
-590 -597 0 
-590 -625 0 
-591 -598 0 
-591 -626 0 
-592 -599 0 
-592 -627 0 
-593 -600 0 
-593 -628 0 
-594 -601 0 
-594 -629 0 
-595 -602 0 
-595 -623 0 
-596 -603 0 
-596 -624 0 
-597 -604 0 
-597 -625 0 
-598 -605 0 
-598 -626 0 
-599 -606 0 
-599 -627 0 
-600 -607 0 
-600 -628 0 
-601 -608 0 
-601 -629 0 
-602 -609 0 
-602 -616 0 
-602 -623 0 
-602 -630 0 
-603 -610 0 
-603 -617 0 
-603 -624 0 
-603 -631 0 
-604 -611 0 
-604 -618 0 
-604 -625 0 
-604 -632 0 
-605 -612 0 
-605 -619 0 
-605 -626 0 
-605 -633 0 
-606 -613 0 
-606 -620 0 
-606 -627 0 
-606 -634 0 
-607 -614 0 
-607 -621 0 
-607 -628 0 
-607 -635 0 
-608 -615 0 
-608 -622 0 
-608 -629 0 
-608 -636 0 
-609 -630 0 
-610 -631 0 
-611 -632 0 
-612 -633 0 
-613 -634 0 
-614 -635 0 
-615 -636 0 
-616 -630 0 
-617 -631 0 
-618 -632 0 
-619 -633 0 
-620 -634 0 
-621 -635 0 
-622 -636 0 
-623 -630 0 
-624 -631 0 
-625 -632 0 
-626 -633 0 
-627 -634 0 
-628 -635 0 
-629 -636 0 
